#######################



#######################
Set parameter TimeLimit to value 500
Set parameter SoftMemLimit to value 125
Set parameter MIPFocus to value 3
Set parameter LogFile to value 1202-MIPFocus3-Presolve1-TimeLimit500-k16x240-8.log
Set parameter Presolve to value 1
Set parameter Seed to value 18
Using license file /opt/gurobi/gurobi.lic

Gurobi Optimizer version 12.0.2 build v12.0.2rc0 (linux64 - "Ubuntu 22.04.4 LTS")
Copyright (c) 2025, Gurobi Optimization, LLC

Read MPS format model from file /miplib2010/k16x240.mps.bz2
Reading time = 0.00 seconds
k16x240: 256 rows, 480 columns, 960 nonzeros

Using Gurobi shared library /nfs/shared/static-builds/gurobi1202

CPU model: Intel(R) Xeon(R) E-2388G CPU @ 3.20GHz, instruction set [SSE2|AVX|AVX2|AVX512]
Thread count: 8 physical cores, 16 logical processors, using up to 16 threads

Non-default parameters:
TimeLimit  500
SoftMemLimit  125
MIPFocus  3
Presolve  1
Seed  18

Optimize a model with 256 rows, 480 columns and 960 nonzeros
Model fingerprint: 0x4e80885f
Variable types: 240 continuous, 240 integer (240 binary)
Coefficient statistics:
  Matrix range     [1e+00, 1e+03]
  Objective range  [1e+00, 1e+03]
  Bounds range     [1e+00, 1e+03]
  RHS range        [4e+00, 4e+02]
Found heuristic solution: objective 19474.000000
Presolve time: 0.00s
Presolved: 256 rows, 480 columns, 960 nonzeros
Variable types: 240 continuous, 240 integer (240 binary)

Root relaxation: objective 2.769838e+03, 51 iterations, 0.00 seconds (0.00 work units)

    Nodes    |    Current Node    |     Objective Bounds      |     Work
 Expl Unexpl |  Obj  Depth IntInf | Incumbent    BestBd   Gap | It/Node Time

     0     0 2769.83800    0   14 19474.0000 2769.83800  85.8%     -    0s
H    0     0                    11359.000000 2769.83800  75.6%     -    0s
H    0     0                    11195.000000 2769.83800  75.3%     -    0s
H    0     0                    11088.000000 2769.83800  75.0%     -    0s
H    0     0                    11074.000000 8116.87580  26.7%     -    0s
H    0     0                    10916.000000 8116.87580  25.6%     -    0s
     0     0 8116.87580    0   26 10916.0000 8116.87580  25.6%     -    0s
H    0     0                    10838.000000 8182.85928  24.5%     -    0s
H    0     0                    10836.000000 8182.85928  24.5%     -    0s
H    0     0                    10826.000000 8182.85928  24.4%     -    0s
H    0     0                    10750.000000 8182.85928  23.9%     -    0s
     0     0 8741.28533    0   24 10750.0000 8741.28533  18.7%     -    0s
H    0     0                    10748.000000 8741.28533  18.7%     -    0s
H    0     0                    10746.000000 8919.90033  17.0%     -    0s
     0     0 9005.96027    0   31 10746.0000 9005.96027  16.2%     -    0s
     0     0 9127.15643    0   33 10746.0000 9127.15643  15.1%     -    0s
     0     0 9127.36891    0   31 10746.0000 9127.36891  15.1%     -    0s
     0     0 9133.06659    0   37 10746.0000 9133.06659  15.0%     -    0s
     0     0 9280.36239    0   31 10746.0000 9280.36239  13.6%     -    0s
     0     0 9308.11144    0   40 10746.0000 9308.11144  13.4%     -    0s
     0     0 9345.72872    0   32 10746.0000 9345.72872  13.0%     -    0s
     0     0 9345.72872    0   32 10746.0000 9345.72872  13.0%     -    0s
H    0     0                    10674.000000 9345.72872  12.4%     -    0s
     0     2 9345.72872    0   32 10674.0000 9345.72872  12.4%     -    0s
  5686  3582     cutoff   31      10674.0000 10351.2422  3.02%  96.1    5s
 21483  4550     cutoff   35      10674.0000 10598.1843  0.71%  58.4   10s

Cutting planes:
  Lift-and-project: 9
  Cover: 2
  Implied bound: 8
  Dual implied bound: 4
  MIR: 132
  Flow cover: 540
  Flow path: 38
  Zero half: 21
  Network: 19
  Relax-and-lift: 2

Explored 29065 nodes (1358060 simplex iterations) in 10.59 seconds (14.24 work units)
Thread count was 16 (of 16 available processors)

Solution count 10: 10674 10746 10748 ... 11088

Optimal solution found (tolerance 1.00e-04)
Best objective 1.067400000000e+04, best bound 1.067300000000e+04, gap 0.0094%
